(set-option :print-success false)
(set-option :produce-models true)
(set-logic AUFLIRA)
(declare-fun n () Int)
(assert (= n 20))
(declare-fun t_T2f (Int) Bool)
(declare-fun h_T2f (Int) Int)
(assert (= (h_T2f 1) 0))
(assert (ite (t_T2f 1) (= (h_T2f 2) (+ (h_T2f 1) 1)) (= (h_T2f 2) (h_T2f 1))))
(assert (ite (t_T2f 2) (= (h_T2f 3) (+ (h_T2f 2) 1)) (= (h_T2f 3) (h_T2f 2))))
(assert (ite (t_T2f 3) (= (h_T2f 4) (+ (h_T2f 3) 1)) (= (h_T2f 4) (h_T2f 3))))
(assert (ite (t_T2f 4) (= (h_T2f 5) (+ (h_T2f 4) 1)) (= (h_T2f 5) (h_T2f 4))))
(assert (ite (t_T2f 5) (= (h_T2f 6) (+ (h_T2f 5) 1)) (= (h_T2f 6) (h_T2f 5))))
(assert (ite (t_T2f 6) (= (h_T2f 7) (+ (h_T2f 6) 1)) (= (h_T2f 7) (h_T2f 6))))
(assert (ite (t_T2f 7) (= (h_T2f 8) (+ (h_T2f 7) 1)) (= (h_T2f 8) (h_T2f 7))))
(assert (ite (t_T2f 8) (= (h_T2f 9) (+ (h_T2f 8) 1)) (= (h_T2f 9) (h_T2f 8))))
(assert (ite (t_T2f 9) (= (h_T2f 10) (+ (h_T2f 9) 1)) (= (h_T2f 10) (h_T2f 9))))
(assert (ite (t_T2f 10) (= (h_T2f 11) (+ (h_T2f 10) 1)) (= (h_T2f 11) (h_T2f 10))))
(assert (ite (t_T2f 11) (= (h_T2f 12) (+ (h_T2f 11) 1)) (= (h_T2f 12) (h_T2f 11))))
(assert (ite (t_T2f 12) (= (h_T2f 13) (+ (h_T2f 12) 1)) (= (h_T2f 13) (h_T2f 12))))
(assert (ite (t_T2f 13) (= (h_T2f 14) (+ (h_T2f 13) 1)) (= (h_T2f 14) (h_T2f 13))))
(assert (ite (t_T2f 14) (= (h_T2f 15) (+ (h_T2f 14) 1)) (= (h_T2f 15) (h_T2f 14))))
(assert (ite (t_T2f 15) (= (h_T2f 16) (+ (h_T2f 15) 1)) (= (h_T2f 16) (h_T2f 15))))
(assert (ite (t_T2f 16) (= (h_T2f 17) (+ (h_T2f 16) 1)) (= (h_T2f 17) (h_T2f 16))))
(assert (ite (t_T2f 17) (= (h_T2f 18) (+ (h_T2f 17) 1)) (= (h_T2f 18) (h_T2f 17))))
(assert (ite (t_T2f 18) (= (h_T2f 19) (+ (h_T2f 18) 1)) (= (h_T2f 19) (h_T2f 18))))
(assert (ite (t_T2f 19) (= (h_T2f 20) (+ (h_T2f 19) 1)) (= (h_T2f 20) (h_T2f 19))))
(assert (ite (t_T2f 20) (= (h_T2f 21) (+ (h_T2f 20) 1)) (= (h_T2f 21) (h_T2f 20))))
(declare-fun t_T2s (Int) Bool)
(declare-fun h_T2s (Int) Int)
(assert (= (h_T2s 1) 0))
(assert (ite (t_T2s 1) (= (h_T2s 2) (+ (h_T2s 1) 1)) (= (h_T2s 2) (h_T2s 1))))
(assert (ite (t_T2s 2) (= (h_T2s 3) (+ (h_T2s 2) 1)) (= (h_T2s 3) (h_T2s 2))))
(assert (ite (t_T2s 3) (= (h_T2s 4) (+ (h_T2s 3) 1)) (= (h_T2s 4) (h_T2s 3))))
(assert (ite (t_T2s 4) (= (h_T2s 5) (+ (h_T2s 4) 1)) (= (h_T2s 5) (h_T2s 4))))
(assert (ite (t_T2s 5) (= (h_T2s 6) (+ (h_T2s 5) 1)) (= (h_T2s 6) (h_T2s 5))))
(assert (ite (t_T2s 6) (= (h_T2s 7) (+ (h_T2s 6) 1)) (= (h_T2s 7) (h_T2s 6))))
(assert (ite (t_T2s 7) (= (h_T2s 8) (+ (h_T2s 7) 1)) (= (h_T2s 8) (h_T2s 7))))
(assert (ite (t_T2s 8) (= (h_T2s 9) (+ (h_T2s 8) 1)) (= (h_T2s 9) (h_T2s 8))))
(assert (ite (t_T2s 9) (= (h_T2s 10) (+ (h_T2s 9) 1)) (= (h_T2s 10) (h_T2s 9))))
(assert (ite (t_T2s 10) (= (h_T2s 11) (+ (h_T2s 10) 1)) (= (h_T2s 11) (h_T2s 10))))
(assert (ite (t_T2s 11) (= (h_T2s 12) (+ (h_T2s 11) 1)) (= (h_T2s 12) (h_T2s 11))))
(assert (ite (t_T2s 12) (= (h_T2s 13) (+ (h_T2s 12) 1)) (= (h_T2s 13) (h_T2s 12))))
(assert (ite (t_T2s 13) (= (h_T2s 14) (+ (h_T2s 13) 1)) (= (h_T2s 14) (h_T2s 13))))
(assert (ite (t_T2s 14) (= (h_T2s 15) (+ (h_T2s 14) 1)) (= (h_T2s 15) (h_T2s 14))))
(assert (ite (t_T2s 15) (= (h_T2s 16) (+ (h_T2s 15) 1)) (= (h_T2s 16) (h_T2s 15))))
(assert (ite (t_T2s 16) (= (h_T2s 17) (+ (h_T2s 16) 1)) (= (h_T2s 17) (h_T2s 16))))
(assert (ite (t_T2s 17) (= (h_T2s 18) (+ (h_T2s 17) 1)) (= (h_T2s 18) (h_T2s 17))))
(assert (ite (t_T2s 18) (= (h_T2s 19) (+ (h_T2s 18) 1)) (= (h_T2s 19) (h_T2s 18))))
(assert (ite (t_T2s 19) (= (h_T2s 20) (+ (h_T2s 19) 1)) (= (h_T2s 20) (h_T2s 19))))
(assert (ite (t_T2s 20) (= (h_T2s 21) (+ (h_T2s 20) 1)) (= (h_T2s 21) (h_T2s 20))))
(declare-fun t_T1s (Int) Bool)
(declare-fun h_T1s (Int) Int)
(assert (= (h_T1s 1) 0))
(assert (ite (t_T1s 1) (= (h_T1s 2) (+ (h_T1s 1) 1)) (= (h_T1s 2) (h_T1s 1))))
(assert (ite (t_T1s 2) (= (h_T1s 3) (+ (h_T1s 2) 1)) (= (h_T1s 3) (h_T1s 2))))
(assert (ite (t_T1s 3) (= (h_T1s 4) (+ (h_T1s 3) 1)) (= (h_T1s 4) (h_T1s 3))))
(assert (ite (t_T1s 4) (= (h_T1s 5) (+ (h_T1s 4) 1)) (= (h_T1s 5) (h_T1s 4))))
(assert (ite (t_T1s 5) (= (h_T1s 6) (+ (h_T1s 5) 1)) (= (h_T1s 6) (h_T1s 5))))
(assert (ite (t_T1s 6) (= (h_T1s 7) (+ (h_T1s 6) 1)) (= (h_T1s 7) (h_T1s 6))))
(assert (ite (t_T1s 7) (= (h_T1s 8) (+ (h_T1s 7) 1)) (= (h_T1s 8) (h_T1s 7))))
(assert (ite (t_T1s 8) (= (h_T1s 9) (+ (h_T1s 8) 1)) (= (h_T1s 9) (h_T1s 8))))
(assert (ite (t_T1s 9) (= (h_T1s 10) (+ (h_T1s 9) 1)) (= (h_T1s 10) (h_T1s 9))))
(assert (ite (t_T1s 10) (= (h_T1s 11) (+ (h_T1s 10) 1)) (= (h_T1s 11) (h_T1s 10))))
(assert (ite (t_T1s 11) (= (h_T1s 12) (+ (h_T1s 11) 1)) (= (h_T1s 12) (h_T1s 11))))
(assert (ite (t_T1s 12) (= (h_T1s 13) (+ (h_T1s 12) 1)) (= (h_T1s 13) (h_T1s 12))))
(assert (ite (t_T1s 13) (= (h_T1s 14) (+ (h_T1s 13) 1)) (= (h_T1s 14) (h_T1s 13))))
(assert (ite (t_T1s 14) (= (h_T1s 15) (+ (h_T1s 14) 1)) (= (h_T1s 15) (h_T1s 14))))
(assert (ite (t_T1s 15) (= (h_T1s 16) (+ (h_T1s 15) 1)) (= (h_T1s 16) (h_T1s 15))))
(assert (ite (t_T1s 16) (= (h_T1s 17) (+ (h_T1s 16) 1)) (= (h_T1s 17) (h_T1s 16))))
(assert (ite (t_T1s 17) (= (h_T1s 18) (+ (h_T1s 17) 1)) (= (h_T1s 18) (h_T1s 17))))
(assert (ite (t_T1s 18) (= (h_T1s 19) (+ (h_T1s 18) 1)) (= (h_T1s 19) (h_T1s 18))))
(assert (ite (t_T1s 19) (= (h_T1s 20) (+ (h_T1s 19) 1)) (= (h_T1s 20) (h_T1s 19))))
(assert (ite (t_T1s 20) (= (h_T1s 21) (+ (h_T1s 20) 1)) (= (h_T1s 21) (h_T1s 20))))
(declare-fun t_b (Int) Bool)
(declare-fun h_b (Int) Int)
(assert (= (h_b 1) 0))
(assert (ite (t_b 1) (= (h_b 2) (+ (h_b 1) 1)) (= (h_b 2) (h_b 1))))
(assert (ite (t_b 2) (= (h_b 3) (+ (h_b 2) 1)) (= (h_b 3) (h_b 2))))
(assert (ite (t_b 3) (= (h_b 4) (+ (h_b 3) 1)) (= (h_b 4) (h_b 3))))
(assert (ite (t_b 4) (= (h_b 5) (+ (h_b 4) 1)) (= (h_b 5) (h_b 4))))
(assert (ite (t_b 5) (= (h_b 6) (+ (h_b 5) 1)) (= (h_b 6) (h_b 5))))
(assert (ite (t_b 6) (= (h_b 7) (+ (h_b 6) 1)) (= (h_b 7) (h_b 6))))
(assert (ite (t_b 7) (= (h_b 8) (+ (h_b 7) 1)) (= (h_b 8) (h_b 7))))
(assert (ite (t_b 8) (= (h_b 9) (+ (h_b 8) 1)) (= (h_b 9) (h_b 8))))
(assert (ite (t_b 9) (= (h_b 10) (+ (h_b 9) 1)) (= (h_b 10) (h_b 9))))
(assert (ite (t_b 10) (= (h_b 11) (+ (h_b 10) 1)) (= (h_b 11) (h_b 10))))
(assert (ite (t_b 11) (= (h_b 12) (+ (h_b 11) 1)) (= (h_b 12) (h_b 11))))
(assert (ite (t_b 12) (= (h_b 13) (+ (h_b 12) 1)) (= (h_b 13) (h_b 12))))
(assert (ite (t_b 13) (= (h_b 14) (+ (h_b 13) 1)) (= (h_b 14) (h_b 13))))
(assert (ite (t_b 14) (= (h_b 15) (+ (h_b 14) 1)) (= (h_b 15) (h_b 14))))
(assert (ite (t_b 15) (= (h_b 16) (+ (h_b 15) 1)) (= (h_b 16) (h_b 15))))
(assert (ite (t_b 16) (= (h_b 17) (+ (h_b 16) 1)) (= (h_b 17) (h_b 16))))
(assert (ite (t_b 17) (= (h_b 18) (+ (h_b 17) 1)) (= (h_b 18) (h_b 17))))
(assert (ite (t_b 18) (= (h_b 19) (+ (h_b 18) 1)) (= (h_b 19) (h_b 18))))
(assert (ite (t_b 19) (= (h_b 20) (+ (h_b 19) 1)) (= (h_b 20) (h_b 19))))
(assert (ite (t_b 20) (= (h_b 21) (+ (h_b 20) 1)) (= (h_b 21) (h_b 20))))
(declare-fun t_T1f (Int) Bool)
(declare-fun h_T1f (Int) Int)
(assert (= (h_T1f 1) 0))
(assert (ite (t_T1f 1) (= (h_T1f 2) (+ (h_T1f 1) 1)) (= (h_T1f 2) (h_T1f 1))))
(assert (ite (t_T1f 2) (= (h_T1f 3) (+ (h_T1f 2) 1)) (= (h_T1f 3) (h_T1f 2))))
(assert (ite (t_T1f 3) (= (h_T1f 4) (+ (h_T1f 3) 1)) (= (h_T1f 4) (h_T1f 3))))
(assert (ite (t_T1f 4) (= (h_T1f 5) (+ (h_T1f 4) 1)) (= (h_T1f 5) (h_T1f 4))))
(assert (ite (t_T1f 5) (= (h_T1f 6) (+ (h_T1f 5) 1)) (= (h_T1f 6) (h_T1f 5))))
(assert (ite (t_T1f 6) (= (h_T1f 7) (+ (h_T1f 6) 1)) (= (h_T1f 7) (h_T1f 6))))
(assert (ite (t_T1f 7) (= (h_T1f 8) (+ (h_T1f 7) 1)) (= (h_T1f 8) (h_T1f 7))))
(assert (ite (t_T1f 8) (= (h_T1f 9) (+ (h_T1f 8) 1)) (= (h_T1f 9) (h_T1f 8))))
(assert (ite (t_T1f 9) (= (h_T1f 10) (+ (h_T1f 9) 1)) (= (h_T1f 10) (h_T1f 9))))
(assert (ite (t_T1f 10) (= (h_T1f 11) (+ (h_T1f 10) 1)) (= (h_T1f 11) (h_T1f 10))))
(assert (ite (t_T1f 11) (= (h_T1f 12) (+ (h_T1f 11) 1)) (= (h_T1f 12) (h_T1f 11))))
(assert (ite (t_T1f 12) (= (h_T1f 13) (+ (h_T1f 12) 1)) (= (h_T1f 13) (h_T1f 12))))
(assert (ite (t_T1f 13) (= (h_T1f 14) (+ (h_T1f 13) 1)) (= (h_T1f 14) (h_T1f 13))))
(assert (ite (t_T1f 14) (= (h_T1f 15) (+ (h_T1f 14) 1)) (= (h_T1f 15) (h_T1f 14))))
(assert (ite (t_T1f 15) (= (h_T1f 16) (+ (h_T1f 15) 1)) (= (h_T1f 16) (h_T1f 15))))
(assert (ite (t_T1f 16) (= (h_T1f 17) (+ (h_T1f 16) 1)) (= (h_T1f 17) (h_T1f 16))))
(assert (ite (t_T1f 17) (= (h_T1f 18) (+ (h_T1f 17) 1)) (= (h_T1f 18) (h_T1f 17))))
(assert (ite (t_T1f 18) (= (h_T1f 19) (+ (h_T1f 18) 1)) (= (h_T1f 19) (h_T1f 18))))
(assert (ite (t_T1f 19) (= (h_T1f 20) (+ (h_T1f 19) 1)) (= (h_T1f 20) (h_T1f 19))))
(assert (ite (t_T1f 20) (= (h_T1f 21) (+ (h_T1f 20) 1)) (= (h_T1f 21) (h_T1f 20))))
(declare-fun t_y (Int) Bool)
(declare-fun h_y (Int) Int)
(assert (= (h_y 1) 0))
(assert (ite (t_y 1) (= (h_y 2) (+ (h_y 1) 1)) (= (h_y 2) (h_y 1))))
(assert (ite (t_y 2) (= (h_y 3) (+ (h_y 2) 1)) (= (h_y 3) (h_y 2))))
(assert (ite (t_y 3) (= (h_y 4) (+ (h_y 3) 1)) (= (h_y 4) (h_y 3))))
(assert (ite (t_y 4) (= (h_y 5) (+ (h_y 4) 1)) (= (h_y 5) (h_y 4))))
(assert (ite (t_y 5) (= (h_y 6) (+ (h_y 5) 1)) (= (h_y 6) (h_y 5))))
(assert (ite (t_y 6) (= (h_y 7) (+ (h_y 6) 1)) (= (h_y 7) (h_y 6))))
(assert (ite (t_y 7) (= (h_y 8) (+ (h_y 7) 1)) (= (h_y 8) (h_y 7))))
(assert (ite (t_y 8) (= (h_y 9) (+ (h_y 8) 1)) (= (h_y 9) (h_y 8))))
(assert (ite (t_y 9) (= (h_y 10) (+ (h_y 9) 1)) (= (h_y 10) (h_y 9))))
(assert (ite (t_y 10) (= (h_y 11) (+ (h_y 10) 1)) (= (h_y 11) (h_y 10))))
(assert (ite (t_y 11) (= (h_y 12) (+ (h_y 11) 1)) (= (h_y 12) (h_y 11))))
(assert (ite (t_y 12) (= (h_y 13) (+ (h_y 12) 1)) (= (h_y 13) (h_y 12))))
(assert (ite (t_y 13) (= (h_y 14) (+ (h_y 13) 1)) (= (h_y 14) (h_y 13))))
(assert (ite (t_y 14) (= (h_y 15) (+ (h_y 14) 1)) (= (h_y 15) (h_y 14))))
(assert (ite (t_y 15) (= (h_y 16) (+ (h_y 15) 1)) (= (h_y 16) (h_y 15))))
(assert (ite (t_y 16) (= (h_y 17) (+ (h_y 16) 1)) (= (h_y 17) (h_y 16))))
(assert (ite (t_y 17) (= (h_y 18) (+ (h_y 17) 1)) (= (h_y 18) (h_y 17))))
(assert (ite (t_y 18) (= (h_y 19) (+ (h_y 18) 1)) (= (h_y 19) (h_y 18))))
(assert (ite (t_y 19) (= (h_y 20) (+ (h_y 19) 1)) (= (h_y 20) (h_y 19))))
(assert (ite (t_y 20) (= (h_y 21) (+ (h_y 20) 1)) (= (h_y 21) (h_y 20))))
(declare-fun t_msec (Int) Bool)
(declare-fun h_msec (Int) Int)
(assert (= (h_msec 1) 0))
(assert (ite (t_msec 1) (= (h_msec 2) (+ (h_msec 1) 1)) (= (h_msec 2) (h_msec 1))))
(assert (ite (t_msec 2) (= (h_msec 3) (+ (h_msec 2) 1)) (= (h_msec 3) (h_msec 2))))
(assert (ite (t_msec 3) (= (h_msec 4) (+ (h_msec 3) 1)) (= (h_msec 4) (h_msec 3))))
(assert (ite (t_msec 4) (= (h_msec 5) (+ (h_msec 4) 1)) (= (h_msec 5) (h_msec 4))))
(assert (ite (t_msec 5) (= (h_msec 6) (+ (h_msec 5) 1)) (= (h_msec 6) (h_msec 5))))
(assert (ite (t_msec 6) (= (h_msec 7) (+ (h_msec 6) 1)) (= (h_msec 7) (h_msec 6))))
(assert (ite (t_msec 7) (= (h_msec 8) (+ (h_msec 7) 1)) (= (h_msec 8) (h_msec 7))))
(assert (ite (t_msec 8) (= (h_msec 9) (+ (h_msec 8) 1)) (= (h_msec 9) (h_msec 8))))
(assert (ite (t_msec 9) (= (h_msec 10) (+ (h_msec 9) 1)) (= (h_msec 10) (h_msec 9))))
(assert (ite (t_msec 10) (= (h_msec 11) (+ (h_msec 10) 1)) (= (h_msec 11) (h_msec 10))))
(assert (ite (t_msec 11) (= (h_msec 12) (+ (h_msec 11) 1)) (= (h_msec 12) (h_msec 11))))
(assert (ite (t_msec 12) (= (h_msec 13) (+ (h_msec 12) 1)) (= (h_msec 13) (h_msec 12))))
(assert (ite (t_msec 13) (= (h_msec 14) (+ (h_msec 13) 1)) (= (h_msec 14) (h_msec 13))))
(assert (ite (t_msec 14) (= (h_msec 15) (+ (h_msec 14) 1)) (= (h_msec 15) (h_msec 14))))
(assert (ite (t_msec 15) (= (h_msec 16) (+ (h_msec 15) 1)) (= (h_msec 16) (h_msec 15))))
(assert (ite (t_msec 16) (= (h_msec 17) (+ (h_msec 16) 1)) (= (h_msec 17) (h_msec 16))))
(assert (ite (t_msec 17) (= (h_msec 18) (+ (h_msec 17) 1)) (= (h_msec 18) (h_msec 17))))
(assert (ite (t_msec 18) (= (h_msec 19) (+ (h_msec 18) 1)) (= (h_msec 19) (h_msec 18))))
(assert (ite (t_msec 19) (= (h_msec 20) (+ (h_msec 19) 1)) (= (h_msec 20) (h_msec 19))))
(assert (ite (t_msec 20) (= (h_msec 21) (+ (h_msec 20) 1)) (= (h_msec 21) (h_msec 20))))
(declare-fun t_a (Int) Bool)
(declare-fun h_a (Int) Int)
(assert (= (h_a 1) 0))
(assert (ite (t_a 1) (= (h_a 2) (+ (h_a 1) 1)) (= (h_a 2) (h_a 1))))
(assert (ite (t_a 2) (= (h_a 3) (+ (h_a 2) 1)) (= (h_a 3) (h_a 2))))
(assert (ite (t_a 3) (= (h_a 4) (+ (h_a 3) 1)) (= (h_a 4) (h_a 3))))
(assert (ite (t_a 4) (= (h_a 5) (+ (h_a 4) 1)) (= (h_a 5) (h_a 4))))
(assert (ite (t_a 5) (= (h_a 6) (+ (h_a 5) 1)) (= (h_a 6) (h_a 5))))
(assert (ite (t_a 6) (= (h_a 7) (+ (h_a 6) 1)) (= (h_a 7) (h_a 6))))
(assert (ite (t_a 7) (= (h_a 8) (+ (h_a 7) 1)) (= (h_a 8) (h_a 7))))
(assert (ite (t_a 8) (= (h_a 9) (+ (h_a 8) 1)) (= (h_a 9) (h_a 8))))
(assert (ite (t_a 9) (= (h_a 10) (+ (h_a 9) 1)) (= (h_a 10) (h_a 9))))
(assert (ite (t_a 10) (= (h_a 11) (+ (h_a 10) 1)) (= (h_a 11) (h_a 10))))
(assert (ite (t_a 11) (= (h_a 12) (+ (h_a 11) 1)) (= (h_a 12) (h_a 11))))
(assert (ite (t_a 12) (= (h_a 13) (+ (h_a 12) 1)) (= (h_a 13) (h_a 12))))
(assert (ite (t_a 13) (= (h_a 14) (+ (h_a 13) 1)) (= (h_a 14) (h_a 13))))
(assert (ite (t_a 14) (= (h_a 15) (+ (h_a 14) 1)) (= (h_a 15) (h_a 14))))
(assert (ite (t_a 15) (= (h_a 16) (+ (h_a 15) 1)) (= (h_a 16) (h_a 15))))
(assert (ite (t_a 16) (= (h_a 17) (+ (h_a 16) 1)) (= (h_a 17) (h_a 16))))
(assert (ite (t_a 17) (= (h_a 18) (+ (h_a 17) 1)) (= (h_a 18) (h_a 17))))
(assert (ite (t_a 18) (= (h_a 19) (+ (h_a 18) 1)) (= (h_a 19) (h_a 18))))
(assert (ite (t_a 19) (= (h_a 20) (+ (h_a 19) 1)) (= (h_a 20) (h_a 19))))
(assert (ite (t_a 20) (= (h_a 21) (+ (h_a 20) 1)) (= (h_a 21) (h_a 20))))
(declare-fun t_x (Int) Bool)
(declare-fun h_x (Int) Int)
(assert (= (h_x 1) 0))
(assert (ite (t_x 1) (= (h_x 2) (+ (h_x 1) 1)) (= (h_x 2) (h_x 1))))
(assert (ite (t_x 2) (= (h_x 3) (+ (h_x 2) 1)) (= (h_x 3) (h_x 2))))
(assert (ite (t_x 3) (= (h_x 4) (+ (h_x 3) 1)) (= (h_x 4) (h_x 3))))
(assert (ite (t_x 4) (= (h_x 5) (+ (h_x 4) 1)) (= (h_x 5) (h_x 4))))
(assert (ite (t_x 5) (= (h_x 6) (+ (h_x 5) 1)) (= (h_x 6) (h_x 5))))
(assert (ite (t_x 6) (= (h_x 7) (+ (h_x 6) 1)) (= (h_x 7) (h_x 6))))
(assert (ite (t_x 7) (= (h_x 8) (+ (h_x 7) 1)) (= (h_x 8) (h_x 7))))
(assert (ite (t_x 8) (= (h_x 9) (+ (h_x 8) 1)) (= (h_x 9) (h_x 8))))
(assert (ite (t_x 9) (= (h_x 10) (+ (h_x 9) 1)) (= (h_x 10) (h_x 9))))
(assert (ite (t_x 10) (= (h_x 11) (+ (h_x 10) 1)) (= (h_x 11) (h_x 10))))
(assert (ite (t_x 11) (= (h_x 12) (+ (h_x 11) 1)) (= (h_x 12) (h_x 11))))
(assert (ite (t_x 12) (= (h_x 13) (+ (h_x 12) 1)) (= (h_x 13) (h_x 12))))
(assert (ite (t_x 13) (= (h_x 14) (+ (h_x 13) 1)) (= (h_x 14) (h_x 13))))
(assert (ite (t_x 14) (= (h_x 15) (+ (h_x 14) 1)) (= (h_x 15) (h_x 14))))
(assert (ite (t_x 15) (= (h_x 16) (+ (h_x 15) 1)) (= (h_x 16) (h_x 15))))
(assert (ite (t_x 16) (= (h_x 17) (+ (h_x 16) 1)) (= (h_x 17) (h_x 16))))
(assert (ite (t_x 17) (= (h_x 18) (+ (h_x 17) 1)) (= (h_x 18) (h_x 17))))
(assert (ite (t_x 18) (= (h_x 19) (+ (h_x 18) 1)) (= (h_x 19) (h_x 18))))
(assert (ite (t_x 19) (= (h_x 20) (+ (h_x 19) 1)) (= (h_x 20) (h_x 19))))
(assert (ite (t_x 20) (= (h_x 21) (+ (h_x 20) 1)) (= (h_x 21) (h_x 20))))
(assert (forall ((x Int)) (=> (and (>= x 1) (<= x n)) (or (t_T2f x) (t_T2s x) (t_T1s x) (t_b x) (t_T1f x) (t_y x) (t_msec x) (t_a x) (t_x x) ))))
(assert (forall ((x Int)) (=> (and (>= x 1) (<= x n)) (= (h_T1s  x) (h_T1f x)) (not (t_T1f x)))))
(assert (forall ((x Int)) (=> (and (>= x 1) (<= x n)) (= (- (h_T1s  x) (h_T1f x)) 1) (not (t_T1s x)))))
(assert (forall ((x Int)) (=> (and (>= x 1) (<= x (+ n 1))) (>= (h_T1f x) (h_T2s x)))))
(assert (forall ((x Int)) (=> (and (>= x 1) (<= x n)) (= (- (h_T1s  x) (h_T2f x)) 4) (not (t_T1s x)))))
(assert (forall ((x Int)) (=> (and (>= x 1) (<= x n)) (= (h_T2s  x) (h_T2f x)) (not (t_T2f x)))))
(assert (forall ((x Int)) (=> (and (>= x 1) (<= x n)) (= (- (h_T2s  x) (h_T2f x)) 1) (not (t_T2s x)))))
(assert (forall ((x Int)) (=> (and (>= x 1) (<= x n)) (= (t_T2f x) (and (t_msec x) (> (h_msec x) 0) (= (mod (h_msec x) 8) 0))))))
(assert (forall ((x Int)) (=> (and (>= x 3) (<= x n)) (= (t_a x) (t_T1s (x - 2))))))
(assert (forall ((x Int)) (=> (and (>= x 5) (<= x n)) (= (t_b x) (t_T1s (x - 4))))))
(assert (forall ((x Int)) (=> (and (>= x 1) (<= x (+ n 1))) (>= (h_a x) (h_T1f x)))))
(assert (forall ((x Int)) (=> (and (>= x 1) (<= x (+ n 1))) (>= (h_T1f x) (h_b x)))))
(assert (forall ((x Int)) (=> (and (>= x 4) (<= x n)) (= (t_x x) (t_T2s (x - 3))))))
(assert (forall ((x Int)) (=> (and (>= x 6) (<= x n)) (= (t_y x) (t_T2s (x - 5))))))
(assert (forall ((x Int)) (=> (and (>= x 1) (<= x (+ n 1))) (>= (h_x x) (h_T2f x)))))
(assert (forall ((x Int)) (=> (and (>= x 1) (<= x (+ n 1))) (>= (h_T2f x) (h_y x)))))
(assert (forall ((x Int)) (=> (and (>= x 1) (<= x n)) (= (t_msec x) true))))
(check-sat)
(get-value ((t_T2f 1)))
(get-value ((t_T2f 2)))
(get-value ((t_T2f 3)))
(get-value ((t_T2f 4)))
(get-value ((t_T2f 5)))
(get-value ((t_T2f 6)))
(get-value ((t_T2f 7)))
(get-value ((t_T2f 8)))
(get-value ((t_T2f 9)))
(get-value ((t_T2f 10)))
(get-value ((t_T2f 11)))
(get-value ((t_T2f 12)))
(get-value ((t_T2f 13)))
(get-value ((t_T2f 14)))
(get-value ((t_T2f 15)))
(get-value ((t_T2f 16)))
(get-value ((t_T2f 17)))
(get-value ((t_T2f 18)))
(get-value ((t_T2f 19)))
(get-value ((t_T2f 20)))
(get-value ((t_T2s 1)))
(get-value ((t_T2s 2)))
(get-value ((t_T2s 3)))
(get-value ((t_T2s 4)))
(get-value ((t_T2s 5)))
(get-value ((t_T2s 6)))
(get-value ((t_T2s 7)))
(get-value ((t_T2s 8)))
(get-value ((t_T2s 9)))
(get-value ((t_T2s 10)))
(get-value ((t_T2s 11)))
(get-value ((t_T2s 12)))
(get-value ((t_T2s 13)))
(get-value ((t_T2s 14)))
(get-value ((t_T2s 15)))
(get-value ((t_T2s 16)))
(get-value ((t_T2s 17)))
(get-value ((t_T2s 18)))
(get-value ((t_T2s 19)))
(get-value ((t_T2s 20)))
(get-value ((t_T1s 1)))
(get-value ((t_T1s 2)))
(get-value ((t_T1s 3)))
(get-value ((t_T1s 4)))
(get-value ((t_T1s 5)))
(get-value ((t_T1s 6)))
(get-value ((t_T1s 7)))
(get-value ((t_T1s 8)))
(get-value ((t_T1s 9)))
(get-value ((t_T1s 10)))
(get-value ((t_T1s 11)))
(get-value ((t_T1s 12)))
(get-value ((t_T1s 13)))
(get-value ((t_T1s 14)))
(get-value ((t_T1s 15)))
(get-value ((t_T1s 16)))
(get-value ((t_T1s 17)))
(get-value ((t_T1s 18)))
(get-value ((t_T1s 19)))
(get-value ((t_T1s 20)))
(get-value ((t_b 1)))
(get-value ((t_b 2)))
(get-value ((t_b 3)))
(get-value ((t_b 4)))
(get-value ((t_b 5)))
(get-value ((t_b 6)))
(get-value ((t_b 7)))
(get-value ((t_b 8)))
(get-value ((t_b 9)))
(get-value ((t_b 10)))
(get-value ((t_b 11)))
(get-value ((t_b 12)))
(get-value ((t_b 13)))
(get-value ((t_b 14)))
(get-value ((t_b 15)))
(get-value ((t_b 16)))
(get-value ((t_b 17)))
(get-value ((t_b 18)))
(get-value ((t_b 19)))
(get-value ((t_b 20)))
(get-value ((t_T1f 1)))
(get-value ((t_T1f 2)))
(get-value ((t_T1f 3)))
(get-value ((t_T1f 4)))
(get-value ((t_T1f 5)))
(get-value ((t_T1f 6)))
(get-value ((t_T1f 7)))
(get-value ((t_T1f 8)))
(get-value ((t_T1f 9)))
(get-value ((t_T1f 10)))
(get-value ((t_T1f 11)))
(get-value ((t_T1f 12)))
(get-value ((t_T1f 13)))
(get-value ((t_T1f 14)))
(get-value ((t_T1f 15)))
(get-value ((t_T1f 16)))
(get-value ((t_T1f 17)))
(get-value ((t_T1f 18)))
(get-value ((t_T1f 19)))
(get-value ((t_T1f 20)))
(get-value ((t_y 1)))
(get-value ((t_y 2)))
(get-value ((t_y 3)))
(get-value ((t_y 4)))
(get-value ((t_y 5)))
(get-value ((t_y 6)))
(get-value ((t_y 7)))
(get-value ((t_y 8)))
(get-value ((t_y 9)))
(get-value ((t_y 10)))
(get-value ((t_y 11)))
(get-value ((t_y 12)))
(get-value ((t_y 13)))
(get-value ((t_y 14)))
(get-value ((t_y 15)))
(get-value ((t_y 16)))
(get-value ((t_y 17)))
(get-value ((t_y 18)))
(get-value ((t_y 19)))
(get-value ((t_y 20)))
(get-value ((t_msec 1)))
(get-value ((t_msec 2)))
(get-value ((t_msec 3)))
(get-value ((t_msec 4)))
(get-value ((t_msec 5)))
(get-value ((t_msec 6)))
(get-value ((t_msec 7)))
(get-value ((t_msec 8)))
(get-value ((t_msec 9)))
(get-value ((t_msec 10)))
(get-value ((t_msec 11)))
(get-value ((t_msec 12)))
(get-value ((t_msec 13)))
(get-value ((t_msec 14)))
(get-value ((t_msec 15)))
(get-value ((t_msec 16)))
(get-value ((t_msec 17)))
(get-value ((t_msec 18)))
(get-value ((t_msec 19)))
(get-value ((t_msec 20)))
(get-value ((t_a 1)))
(get-value ((t_a 2)))
(get-value ((t_a 3)))
(get-value ((t_a 4)))
(get-value ((t_a 5)))
(get-value ((t_a 6)))
(get-value ((t_a 7)))
(get-value ((t_a 8)))
(get-value ((t_a 9)))
(get-value ((t_a 10)))
(get-value ((t_a 11)))
(get-value ((t_a 12)))
(get-value ((t_a 13)))
(get-value ((t_a 14)))
(get-value ((t_a 15)))
(get-value ((t_a 16)))
(get-value ((t_a 17)))
(get-value ((t_a 18)))
(get-value ((t_a 19)))
(get-value ((t_a 20)))
(get-value ((t_x 1)))
(get-value ((t_x 2)))
(get-value ((t_x 3)))
(get-value ((t_x 4)))
(get-value ((t_x 5)))
(get-value ((t_x 6)))
(get-value ((t_x 7)))
(get-value ((t_x 8)))
(get-value ((t_x 9)))
(get-value ((t_x 10)))
(get-value ((t_x 11)))
(get-value ((t_x 12)))
(get-value ((t_x 13)))
(get-value ((t_x 14)))
(get-value ((t_x 15)))
(get-value ((t_x 16)))
(get-value ((t_x 17)))
(get-value ((t_x 18)))
(get-value ((t_x 19)))
(get-value ((t_x 20)))
